<?xml version="1.0" encoding="UTF-8"?><osil xmlns="os.optimizationservices.org"   xmlns:xsi="http://www.w3.org/2001/XMLSchema-instance" xsi:schemaLocation="os.optimizationservices.org http://www.optimizationservices.org/schemas/2.0/OSiL.xsd" ><instanceHeader><name>q_20_4_50_3</name></instanceHeader><instanceData><variables numberOfVariables="20"><var name="x1" ub="1"/><var name="x2" ub="1"/><var name="x3" ub="1"/><var name="x4" ub="1"/><var name="x5" ub="1"/><var name="x6" ub="1"/><var name="x7" ub="1"/><var name="x8" ub="1"/><var name="x9" ub="1"/><var name="x10" ub="1"/><var name="x11" ub="1"/><var name="x12" ub="1"/><var name="x13" ub="1"/><var name="x14" ub="1"/><var name="x15" ub="1"/><var name="x16" ub="1"/><var name="x17" ub="1"/><var name="x18" ub="1"/><var name="x19" ub="1"/><var name="x20" ub="1"/></variables><objectives numberOfObjectives="1"><obj maxOrMin="min" name="defObj_x21" numberOfObjCoef="20"><coef idx="0">-.2515</coef><coef idx="1">-.5229</coef><coef idx="2">-.8637</coef><coef idx="3">.32</coef><coef idx="4">.8625</coef><coef idx="5">.9071</coef><coef idx="6">.4446</coef><coef idx="7">-.6474</coef><coef idx="8">-.6233</coef><coef idx="9">.4262</coef><coef idx="10">.5416</coef><coef idx="11">.4383</coef><coef idx="12">-6.25e-2</coef><coef idx="13">-.3919</coef><coef idx="14">.2185</coef><coef idx="15">.5685</coef><coef idx="16">-.68</coef><coef idx="17">-.5786</coef><coef idx="18">-.8939</coef><coef idx="19">-.2045</coef></obj></objectives><constraints numberOfConstraints="4"><con name="e2" ub="8.671"/><con name="e3" ub="98.461"/><con name="e4" ub="34.089"/><con name="e5" ub="52.15"/></constraints><linearConstraintCoefficients numberOfValues="80"><start><el mult="5" incr="20">0</el></start><colIdx><el mult="20" incr="1">0</el><el mult="20" incr="1">0</el><el mult="20" incr="1">0</el><el mult="20" incr="1">0</el></colIdx><value><el>5.04e-2</el><el>-.1925</el><el>-.5824</el><el>-.2602</el><el>-.8045</el><el>-.898</el><el>-.7569</el><el>4.46e-2</el><el>-.9005</el><el>-.5285</el><el>-.8968</el><el>-.647</el><el>-.8792</el><el>-.9868</el><el>.3686</el><el>-.5864</el><el>.8461</el><el>-.7498</el><el>-.5895</el><el>.251</el><el>-.1868</el><el>.1476</el><el>-.6077</el><el>3.53e-2</el><el>.3077</el><el>.783</el><el>.4384</el><el>.9267</el><el>.2744</el><el>.2547</el><el>-.9187</el><el>.9862</el><el>.583</el><el>.7762</el><el>.88</el><el>.4531</el><el>-.7793</el><el>.9017</el><el>-.1144</el><el>-.6151</el><el>-.5834</el><el>.2616</el><el>.5116</el><el>.3567</el><el>-.2945</el><el>.579</el><el>.2476</el><el>-.5532</el><el>9.49e-2</el><el>-.117</el><el>-.7991</el><el>-.6343</el><el>.2364</el><el>-.9045</el><el>-.665</el><el>.2264</el><el>.6217</el><el>-.1185</el><el>.4789</el><el>1.7e-3</el><el>-.285</el><el>-.6326</el><el>.5737</el><el>.8054</el><el>.1124</el><el>.3338</el><el>.2134</el><el>-.8688</el><el>.5215</el><el>.5717</el><el>.4305</el><el>-5.78e-2</el><el>7.8e-2</el><el>-7.09e-2</el><el>.4567</el><el>.807</el><el>-.3978</el><el>7.9e-2</el><el>1.7e-2</el><el>-.9638</el></value></linearConstraintCoefficients><quadraticCoefficients  numberOfQuadraticTerms="525" ><qTerm  idx="-1"  idxOne="0"  idxTwo="2"  coef="1.9842"/><qTerm  idx="-1"  idxOne="0"  idxTwo="3"  coef="1.343"/><qTerm  idx="-1"  idxOne="0"  idxTwo="6"  coef="-1.9173"/><qTerm  idx="-1"  idxOne="0"  idxTwo="8"  coef="-.9788"/><qTerm  idx="-1"  idxOne="0"  idxTwo="12"  coef="-.538"/><qTerm  idx="-1"  idxOne="0"  idxTwo="18"  coef="1.4532"/><qTerm  idx="-1"  idxOne="1"  idxTwo="1"  coef="-1.4279"/><qTerm  idx="-1"  idxOne="1"  idxTwo="3"  coef="-.7985"/><qTerm  idx="-1"  idxOne="1"  idxTwo="4"  coef="-1.0756"/><qTerm  idx="-1"  idxOne="1"  idxTwo="7"  coef="-.6323"/><qTerm  idx="-1"  idxOne="1"  idxTwo="9"  coef="-1.0619"/><qTerm  idx="-1"  idxOne="1"  idxTwo="10"  coef="1.3036"/><qTerm  idx="-1"  idxOne="1"  idxTwo="12"  coef="1.2595"/><qTerm  idx="-1"  idxOne="1"  idxTwo="13"  coef="1.6496"/><qTerm  idx="-1"  idxOne="1"  idxTwo="14"  coef="-1.8779"/><qTerm  idx="-1"  idxOne="1"  idxTwo="15"  coef="1.3557"/><qTerm  idx="-1"  idxOne="1"  idxTwo="17"  coef="1.5942"/><qTerm  idx="-1"  idxOne="1"  idxTwo="18"  coef="-.4047"/><qTerm  idx="-1"  idxOne="1"  idxTwo="19"  coef="-.7981"/><qTerm  idx="-1"  idxOne="2"  idxTwo="3"  coef=".9776"/><qTerm  idx="-1"  idxOne="2"  idxTwo="4"  coef="1.4598"/><qTerm  idx="-1"  idxOne="2"  idxTwo="7"  coef="1.7712"/><qTerm  idx="-1"  idxOne="2"  idxTwo="9"  coef="-.2698"/><qTerm  idx="-1"  idxOne="2"  idxTwo="10"  coef="1.8135"/><qTerm  idx="-1"  idxOne="2"  idxTwo="12"  coef="-1.8679"/><qTerm  idx="-1"  idxOne="2"  idxTwo="13"  coef="-1.8841"/><qTerm  idx="-1"  idxOne="2"  idxTwo="17"  coef="-.6326"/><qTerm  idx="-1"  idxOne="2"  idxTwo="18"  coef="-1.364"/><qTerm  idx="-1"  idxOne="3"  idxTwo="4"  coef="-.2916"/><qTerm  idx="-1"  idxOne="3"  idxTwo="6"  coef="1.6307"/><qTerm  idx="-1"  idxOne="3"  idxTwo="8"  coef=".9338"/><qTerm  idx="-1"  idxOne="3"  idxTwo="11"  coef="-1.6853"/><qTerm  idx="-1"  idxOne="3"  idxTwo="12"  coef="-.7568"/><qTerm  idx="-1"  idxOne="3"  idxTwo="13"  coef="-.6243"/><qTerm  idx="-1"  idxOne="3"  idxTwo="14"  coef=".4935"/><qTerm  idx="-1"  idxOne="3"  idxTwo="17"  coef="-1.3279"/><qTerm  idx="-1"  idxOne="4"  idxTwo="8"  coef="1.0218"/><qTerm  idx="-1"  idxOne="4"  idxTwo="9"  coef=".8112"/><qTerm  idx="-1"  idxOne="4"  idxTwo="10"  coef="-.8135"/><qTerm  idx="-1"  idxOne="4"  idxTwo="11"  coef="-1.6583"/><qTerm  idx="-1"  idxOne="4"  idxTwo="14"  coef="-1.886"/><qTerm  idx="-1"  idxOne="4"  idxTwo="15"  coef=".5563"/><qTerm  idx="-1"  idxOne="4"  idxTwo="16"  coef="-.817"/><qTerm  idx="-1"  idxOne="4"  idxTwo="17"  coef="-1.5226"/><qTerm  idx="-1"  idxOne="4"  idxTwo="18"  coef=".6897"/><qTerm  idx="-1"  idxOne="5"  idxTwo="6"  coef="-.6799"/><qTerm  idx="-1"  idxOne="5"  idxTwo="7"  coef="-1.3022"/><qTerm  idx="-1"  idxOne="5"  idxTwo="8"  coef=".1863"/><qTerm  idx="-1"  idxOne="5"  idxTwo="10"  coef=".2651"/><qTerm  idx="-1"  idxOne="5"  idxTwo="11"  coef=".8307"/><qTerm  idx="-1"  idxOne="5"  idxTwo="13"  coef="6.9e-3"/><qTerm  idx="-1"  idxOne="6"  idxTwo="6"  coef="-.1611"/><qTerm  idx="-1"  idxOne="6"  idxTwo="7"  coef="1.7689"/><qTerm  idx="-1"  idxOne="6"  idxTwo="8"  coef="1.9115"/><qTerm  idx="-1"  idxOne="6"  idxTwo="9"  coef="1.4974"/><qTerm  idx="-1"  idxOne="6"  idxTwo="10"  coef="-1.8609"/><qTerm  idx="-1"  idxOne="6"  idxTwo="12"  coef=".5716"/><qTerm  idx="-1"  idxOne="6"  idxTwo="14"  coef="-.7206"/><qTerm  idx="-1"  idxOne="6"  idxTwo="17"  coef=".8056"/><qTerm  idx="-1"  idxOne="7"  idxTwo="9"  coef=".9094"/><qTerm  idx="-1"  idxOne="7"  idxTwo="11"  coef="-1.0758"/><qTerm  idx="-1"  idxOne="7"  idxTwo="16"  coef="-.6822"/><qTerm  idx="-1"  idxOne="7"  idxTwo="17"  coef="1.1931"/><qTerm  idx="-1"  idxOne="8"  idxTwo="12"  coef="-1.1361"/><qTerm  idx="-1"  idxOne="8"  idxTwo="13"  coef="-.7046"/><qTerm  idx="-1"  idxOne="8"  idxTwo="14"  coef=".114"/><qTerm  idx="-1"  idxOne="8"  idxTwo="15"  coef="-1.5395"/><qTerm  idx="-1"  idxOne="8"  idxTwo="17"  coef="1.412"/><qTerm  idx="-1"  idxOne="8"  idxTwo="18"  coef="-.8383"/><qTerm  idx="-1"  idxOne="9"  idxTwo="10"  coef="-.7805"/><qTerm  idx="-1"  idxOne="9"  idxTwo="15"  coef="1.9148"/><qTerm  idx="-1"  idxOne="9"  idxTwo="16"  coef=".8101"/><qTerm  idx="-1"  idxOne="9"  idxTwo="17"  coef="-.8025"/><qTerm  idx="-1"  idxOne="10"  idxTwo="10"  coef="1.1104"/><qTerm  idx="-1"  idxOne="10"  idxTwo="11"  coef="-.6"/><qTerm  idx="-1"  idxOne="10"  idxTwo="15"  coef="-1.3042"/><qTerm  idx="-1"  idxOne="10"  idxTwo="16"  coef="-5.61e-2"/><qTerm  idx="-1"  idxOne="10"  idxTwo="17"  coef="1.8432"/><qTerm  idx="-1"  idxOne="10"  idxTwo="18"  coef="-.4442"/><qTerm  idx="-1"  idxOne="11"  idxTwo="11"  coef=".5235"/><qTerm  idx="-1"  idxOne="11"  idxTwo="13"  coef="-.3508"/><qTerm  idx="-1"  idxOne="11"  idxTwo="14"  coef="-.8182"/><qTerm  idx="-1"  idxOne="11"  idxTwo="15"  coef="1.6681"/><qTerm  idx="-1"  idxOne="11"  idxTwo="16"  coef=".9079"/><qTerm  idx="-1"  idxOne="11"  idxTwo="17"  coef=".8657"/><qTerm  idx="-1"  idxOne="11"  idxTwo="18"  coef="-.5209"/><qTerm  idx="-1"  idxOne="12"  idxTwo="15"  coef="-.7758"/><qTerm  idx="-1"  idxOne="12"  idxTwo="16"  coef="-.9649"/><qTerm  idx="-1"  idxOne="12"  idxTwo="17"  coef="-1.6305"/><qTerm  idx="-1"  idxOne="12"  idxTwo="18"  coef="1.5167"/><qTerm  idx="-1"  idxOne="13"  idxTwo="14"  coef="1.1885"/><qTerm  idx="-1"  idxOne="13"  idxTwo="15"  coef=".7426"/><qTerm  idx="-1"  idxOne="13"  idxTwo="16"  coef="-1.6136"/><qTerm  idx="-1"  idxOne="13"  idxTwo="17"  coef="-.7431"/><qTerm  idx="-1"  idxOne="13"  idxTwo="18"  coef="-.6271"/><qTerm  idx="-1"  idxOne="13"  idxTwo="19"  coef=".771"/><qTerm  idx="-1"  idxOne="14"  idxTwo="15"  coef="-1.393"/><qTerm  idx="-1"  idxOne="14"  idxTwo="16"  coef="-.9858"/><qTerm  idx="-1"  idxOne="15"  idxTwo="15"  coef="1.8355"/><qTerm  idx="-1"  idxOne="15"  idxTwo="16"  coef="2.86e-2"/><qTerm  idx="-1"  idxOne="15"  idxTwo="18"  coef="3.9e-2"/><qTerm  idx="-1"  idxOne="16"  idxTwo="18"  coef="-.9315"/><qTerm  idx="-1"  idxOne="16"  idxTwo="19"  coef="1.3788"/><qTerm  idx="-1"  idxOne="17"  idxTwo="18"  coef="-1.8837"/><qTerm  idx="-1"  idxOne="18"  idxTwo="19"  coef="-1.1433"/><qTerm  idx="0"  idxOne="0"  idxTwo="2"  coef="-.9809"/><qTerm  idx="0"  idxOne="0"  idxTwo="4"  coef="-.6032"/><qTerm  idx="0"  idxOne="0"  idxTwo="7"  coef="-1.6918"/><qTerm  idx="0"  idxOne="0"  idxTwo="11"  coef="-1.4475"/><qTerm  idx="0"  idxOne="0"  idxTwo="16"  coef="-1.2703"/><qTerm  idx="0"  idxOne="0"  idxTwo="18"  coef=".4176"/><qTerm  idx="0"  idxOne="1"  idxTwo="1"  coef=".1987"/><qTerm  idx="0"  idxOne="1"  idxTwo="2"  coef="-1.3608"/><qTerm  idx="0"  idxOne="1"  idxTwo="3"  coef="1.5901"/><qTerm  idx="0"  idxOne="1"  idxTwo="4"  coef="-5.5e-3"/><qTerm  idx="0"  idxOne="1"  idxTwo="11"  coef="1.1653"/><qTerm  idx="0"  idxOne="1"  idxTwo="12"  coef="-.1508"/><qTerm  idx="0"  idxOne="1"  idxTwo="13"  coef="1.407"/><qTerm  idx="0"  idxOne="1"  idxTwo="14"  coef=".2521"/><qTerm  idx="0"  idxOne="1"  idxTwo="15"  coef="-1.4109"/><qTerm  idx="0"  idxOne="1"  idxTwo="16"  coef="-1.7662"/><qTerm  idx="0"  idxOne="1"  idxTwo="18"  coef="-.7767"/><qTerm  idx="0"  idxOne="2"  idxTwo="3"  coef="1.9292"/><qTerm  idx="0"  idxOne="2"  idxTwo="5"  coef="1.3104"/><qTerm  idx="0"  idxOne="2"  idxTwo="12"  coef="1.9245"/><qTerm  idx="0"  idxOne="2"  idxTwo="13"  coef="-1.2882"/><qTerm  idx="0"  idxOne="2"  idxTwo="14"  coef="-.8197"/><qTerm  idx="0"  idxOne="2"  idxTwo="17"  coef="-.9648"/><qTerm  idx="0"  idxOne="3"  idxTwo="4"  coef="-1.0821"/><qTerm  idx="0"  idxOne="3"  idxTwo="5"  coef="-.2387"/><qTerm  idx="0"  idxOne="3"  idxTwo="6"  coef="-1.8168"/><qTerm  idx="0"  idxOne="3"  idxTwo="9"  coef="-.4751"/><qTerm  idx="0"  idxOne="3"  idxTwo="10"  coef=".6652"/><qTerm  idx="0"  idxOne="3"  idxTwo="11"  coef=".8385"/><qTerm  idx="0"  idxOne="3"  idxTwo="13"  coef="-.4093"/><qTerm  idx="0"  idxOne="3"  idxTwo="15"  coef="1.3214"/><qTerm  idx="0"  idxOne="3"  idxTwo="16"  coef="-.6648"/><qTerm  idx="0"  idxOne="3"  idxTwo="17"  coef="1.9512"/><qTerm  idx="0"  idxOne="4"  idxTwo="5"  coef="-.315"/><qTerm  idx="0"  idxOne="4"  idxTwo="6"  coef="1.5804"/><qTerm  idx="0"  idxOne="4"  idxTwo="8"  coef="-.9266"/><qTerm  idx="0"  idxOne="4"  idxTwo="9"  coef="-.8089"/><qTerm  idx="0"  idxOne="4"  idxTwo="11"  coef="-1.1969"/><qTerm  idx="0"  idxOne="4"  idxTwo="12"  coef="-1.5524"/><qTerm  idx="0"  idxOne="4"  idxTwo="13"  coef=".1255"/><qTerm  idx="0"  idxOne="4"  idxTwo="15"  coef="-1.9584"/><qTerm  idx="0"  idxOne="4"  idxTwo="16"  coef="1.4813"/><qTerm  idx="0"  idxOne="4"  idxTwo="17"  coef="-1.941"/><qTerm  idx="0"  idxOne="4"  idxTwo="18"  coef="-1.4116"/><qTerm  idx="0"  idxOne="4"  idxTwo="19"  coef="-.671"/><qTerm  idx="0"  idxOne="5"  idxTwo="5"  coef="1.7315"/><qTerm  idx="0"  idxOne="5"  idxTwo="6"  coef="1.8585"/><qTerm  idx="0"  idxOne="5"  idxTwo="8"  coef="-.5292"/><qTerm  idx="0"  idxOne="5"  idxTwo="10"  coef="-.7948"/><qTerm  idx="0"  idxOne="5"  idxTwo="14"  coef="-.9908"/><qTerm  idx="0"  idxOne="5"  idxTwo="17"  coef="1.9075"/><qTerm  idx="0"  idxOne="6"  idxTwo="6"  coef=".5607"/><qTerm  idx="0"  idxOne="6"  idxTwo="7"  coef=".186"/><qTerm  idx="0"  idxOne="6"  idxTwo="8"  coef="1.5638"/><qTerm  idx="0"  idxOne="6"  idxTwo="9"  coef="-.1582"/><qTerm  idx="0"  idxOne="6"  idxTwo="12"  coef="-1.7519"/><qTerm  idx="0"  idxOne="6"  idxTwo="15"  coef=".4142"/><qTerm  idx="0"  idxOne="7"  idxTwo="7"  coef=".6272"/><qTerm  idx="0"  idxOne="7"  idxTwo="8"  coef=".6824"/><qTerm  idx="0"  idxOne="7"  idxTwo="10"  coef="-1.9714"/><qTerm  idx="0"  idxOne="7"  idxTwo="11"  coef=".6325"/><qTerm  idx="0"  idxOne="7"  idxTwo="12"  coef=".228"/><qTerm  idx="0"  idxOne="7"  idxTwo="14"  coef="-.623"/><qTerm  idx="0"  idxOne="7"  idxTwo="16"  coef=".4421"/><qTerm  idx="0"  idxOne="7"  idxTwo="17"  coef="-1.7161"/><qTerm  idx="0"  idxOne="7"  idxTwo="18"  coef="1.0006"/><qTerm  idx="0"  idxOne="7"  idxTwo="19"  coef="1.736"/><qTerm  idx="0"  idxOne="8"  idxTwo="9"  coef="-1.3028"/><qTerm  idx="0"  idxOne="8"  idxTwo="10"  coef="1.3273"/><qTerm  idx="0"  idxOne="8"  idxTwo="11"  coef=".341"/><qTerm  idx="0"  idxOne="8"  idxTwo="14"  coef="1.2898"/><qTerm  idx="0"  idxOne="8"  idxTwo="15"  coef="-1.629"/><qTerm  idx="0"  idxOne="8"  idxTwo="17"  coef=".4032"/><qTerm  idx="0"  idxOne="9"  idxTwo="11"  coef="1.8252"/><qTerm  idx="0"  idxOne="9"  idxTwo="12"  coef="-.4048"/><qTerm  idx="0"  idxOne="9"  idxTwo="13"  coef="1.5543"/><qTerm  idx="0"  idxOne="9"  idxTwo="18"  coef="1.4185"/><qTerm  idx="0"  idxOne="10"  idxTwo="10"  coef="1.7279"/><qTerm  idx="0"  idxOne="10"  idxTwo="11"  coef="-.3312"/><qTerm  idx="0"  idxOne="10"  idxTwo="12"  coef="-1.9305"/><qTerm  idx="0"  idxOne="10"  idxTwo="13"  coef="1.494"/><qTerm  idx="0"  idxOne="10"  idxTwo="14"  coef="-.3064"/><qTerm  idx="0"  idxOne="10"  idxTwo="16"  coef="6.3e-2"/><qTerm  idx="0"  idxOne="10"  idxTwo="19"  coef="-1.2353"/><qTerm  idx="0"  idxOne="11"  idxTwo="13"  coef="-1.7524"/><qTerm  idx="0"  idxOne="11"  idxTwo="14"  coef="-.7216"/><qTerm  idx="0"  idxOne="11"  idxTwo="17"  coef=".6511"/><qTerm  idx="0"  idxOne="11"  idxTwo="18"  coef=".3296"/><qTerm  idx="0"  idxOne="12"  idxTwo="13"  coef="-1.2309"/><qTerm  idx="0"  idxOne="12"  idxTwo="14"  coef="-1.0515"/><qTerm  idx="0"  idxOne="12"  idxTwo="17"  coef="-7.78e-2"/><qTerm  idx="0"  idxOne="12"  idxTwo="19"  coef="-.867"/><qTerm  idx="0"  idxOne="13"  idxTwo="14"  coef="-1.2883"/><qTerm  idx="0"  idxOne="13"  idxTwo="16"  coef="-1.8359"/><qTerm  idx="0"  idxOne="13"  idxTwo="18"  coef="1.4211"/><qTerm  idx="0"  idxOne="14"  idxTwo="15"  coef=".5793"/><qTerm  idx="0"  idxOne="14"  idxTwo="16"  coef="1.596"/><qTerm  idx="0"  idxOne="15"  idxTwo="17"  coef=".3499"/><qTerm  idx="0"  idxOne="15"  idxTwo="18"  coef="-.8743"/><qTerm  idx="0"  idxOne="16"  idxTwo="16"  coef="-1.4233"/><qTerm  idx="0"  idxOne="16"  idxTwo="17"  coef="-1.722"/><qTerm  idx="0"  idxOne="16"  idxTwo="18"  coef="1.1966"/><qTerm  idx="0"  idxOne="17"  idxTwo="18"  coef="-.2607"/><qTerm  idx="0"  idxOne="17"  idxTwo="19"  coef=".1737"/><qTerm  idx="0"  idxOne="18"  idxTwo="18"  coef="-1.3717"/><qTerm  idx="1"  idxOne="0"  idxTwo="1"  coef=".237"/><qTerm  idx="1"  idxOne="0"  idxTwo="3"  coef="-1.7828"/><qTerm  idx="1"  idxOne="0"  idxTwo="4"  coef="-.1783"/><qTerm  idx="1"  idxOne="0"  idxTwo="10"  coef="1.0636"/><qTerm  idx="1"  idxOne="0"  idxTwo="11"  coef="-1.607"/><qTerm  idx="1"  idxOne="0"  idxTwo="13"  coef="-.7546"/><qTerm  idx="1"  idxOne="0"  idxTwo="16"  coef="-.487"/><qTerm  idx="1"  idxOne="0"  idxTwo="17"  coef="-.7333"/><qTerm  idx="1"  idxOne="0"  idxTwo="19"  coef=".1701"/><qTerm  idx="1"  idxOne="1"  idxTwo="3"  coef="-1.5767"/><qTerm  idx="1"  idxOne="1"  idxTwo="4"  coef=".7639"/><qTerm  idx="1"  idxOne="1"  idxTwo="8"  coef="3.71e-2"/><qTerm  idx="1"  idxOne="1"  idxTwo="9"  coef="1.9588"/><qTerm  idx="1"  idxOne="1"  idxTwo="12"  coef=".768"/><qTerm  idx="1"  idxOne="1"  idxTwo="14"  coef="-.6227"/><qTerm  idx="1"  idxOne="1"  idxTwo="16"  coef="-1.9236"/><qTerm  idx="1"  idxOne="1"  idxTwo="18"  coef="-.967"/><qTerm  idx="1"  idxOne="2"  idxTwo="3"  coef="1.8396"/><qTerm  idx="1"  idxOne="2"  idxTwo="5"  coef=".8514"/><qTerm  idx="1"  idxOne="2"  idxTwo="6"  coef="-1.8124"/><qTerm  idx="1"  idxOne="2"  idxTwo="7"  coef="-1.767"/><qTerm  idx="1"  idxOne="2"  idxTwo="8"  coef=".2552"/><qTerm  idx="1"  idxOne="2"  idxTwo="10"  coef="-1.7077"/><qTerm  idx="1"  idxOne="2"  idxTwo="11"  coef="1.5249"/><qTerm  idx="1"  idxOne="2"  idxTwo="12"  coef="-.9264"/><qTerm  idx="1"  idxOne="2"  idxTwo="14"  coef="-.9708"/><qTerm  idx="1"  idxOne="2"  idxTwo="15"  coef="-1.7082"/><qTerm  idx="1"  idxOne="2"  idxTwo="16"  coef=".5803"/><qTerm  idx="1"  idxOne="3"  idxTwo="4"  coef=".2376"/><qTerm  idx="1"  idxOne="3"  idxTwo="5"  coef="-.5074"/><qTerm  idx="1"  idxOne="3"  idxTwo="11"  coef="-1.1754"/><qTerm  idx="1"  idxOne="3"  idxTwo="12"  coef="-1.1056"/><qTerm  idx="1"  idxOne="3"  idxTwo="13"  coef=".2762"/><qTerm  idx="1"  idxOne="3"  idxTwo="14"  coef="1.6917"/><qTerm  idx="1"  idxOne="3"  idxTwo="15"  coef="-1.954"/><qTerm  idx="1"  idxOne="3"  idxTwo="16"  coef="-.2714"/><qTerm  idx="1"  idxOne="3"  idxTwo="17"  coef="-1.4488"/><qTerm  idx="1"  idxOne="4"  idxTwo="6"  coef="1.5534"/><qTerm  idx="1"  idxOne="4"  idxTwo="8"  coef="-1.3873"/><qTerm  idx="1"  idxOne="4"  idxTwo="11"  coef="-1.818"/><qTerm  idx="1"  idxOne="4"  idxTwo="12"  coef="-1.0459"/><qTerm  idx="1"  idxOne="4"  idxTwo="13"  coef="9.35e-2"/><qTerm  idx="1"  idxOne="4"  idxTwo="14"  coef="-1.9782"/><qTerm  idx="1"  idxOne="4"  idxTwo="16"  coef="-1.9331"/><qTerm  idx="1"  idxOne="4"  idxTwo="17"  coef="1.1446"/><qTerm  idx="1"  idxOne="4"  idxTwo="19"  coef="-.5637"/><qTerm  idx="1"  idxOne="5"  idxTwo="7"  coef="-1.6111"/><qTerm  idx="1"  idxOne="5"  idxTwo="10"  coef="-1.3955"/><qTerm  idx="1"  idxOne="5"  idxTwo="14"  coef="-1.175"/><qTerm  idx="1"  idxOne="5"  idxTwo="15"  coef="-1.7658"/><qTerm  idx="1"  idxOne="5"  idxTwo="17"  coef="-1.7313"/><qTerm  idx="1"  idxOne="6"  idxTwo="6"  coef="-.6083"/><qTerm  idx="1"  idxOne="6"  idxTwo="7"  coef="-1.5051"/><qTerm  idx="1"  idxOne="6"  idxTwo="8"  coef=".7503"/><qTerm  idx="1"  idxOne="6"  idxTwo="9"  coef="1.5951"/><qTerm  idx="1"  idxOne="6"  idxTwo="10"  coef="-1.3202"/><qTerm  idx="1"  idxOne="6"  idxTwo="14"  coef="1.9596"/><qTerm  idx="1"  idxOne="6"  idxTwo="15"  coef=".6915"/><qTerm  idx="1"  idxOne="6"  idxTwo="16"  coef=".315"/><qTerm  idx="1"  idxOne="6"  idxTwo="17"  coef=".7699"/><qTerm  idx="1"  idxOne="7"  idxTwo="8"  coef="1.8977"/><qTerm  idx="1"  idxOne="7"  idxTwo="9"  coef="-.5518"/><qTerm  idx="1"  idxOne="7"  idxTwo="13"  coef="-.9633"/><qTerm  idx="1"  idxOne="7"  idxTwo="15"  coef=".3976"/><qTerm  idx="1"  idxOne="7"  idxTwo="17"  coef="2.56e-2"/><qTerm  idx="1"  idxOne="7"  idxTwo="18"  coef=".8723"/><qTerm  idx="1"  idxOne="7"  idxTwo="19"  coef="-1.7265"/><qTerm  idx="1"  idxOne="8"  idxTwo="8"  coef="-1.1983"/><qTerm  idx="1"  idxOne="8"  idxTwo="11"  coef=".3889"/><qTerm  idx="1"  idxOne="8"  idxTwo="12"  coef=".9631"/><qTerm  idx="1"  idxOne="8"  idxTwo="13"  coef=".1229"/><qTerm  idx="1"  idxOne="9"  idxTwo="9"  coef="-.8167"/><qTerm  idx="1"  idxOne="9"  idxTwo="10"  coef="1.6196"/><qTerm  idx="1"  idxOne="9"  idxTwo="11"  coef="-.2973"/><qTerm  idx="1"  idxOne="9"  idxTwo="13"  coef="-.8985"/><qTerm  idx="1"  idxOne="9"  idxTwo="14"  coef="-.6854"/><qTerm  idx="1"  idxOne="9"  idxTwo="15"  coef="1.0715"/><qTerm  idx="1"  idxOne="9"  idxTwo="16"  coef="-.3713"/><qTerm  idx="1"  idxOne="9"  idxTwo="17"  coef=".7686"/><qTerm  idx="1"  idxOne="9"  idxTwo="18"  coef=".8528"/><qTerm  idx="1"  idxOne="10"  idxTwo="13"  coef="-1.378"/><qTerm  idx="1"  idxOne="10"  idxTwo="17"  coef="1.7625"/><qTerm  idx="1"  idxOne="10"  idxTwo="18"  coef=".5968"/><qTerm  idx="1"  idxOne="11"  idxTwo="12"  coef="-1.4079"/><qTerm  idx="1"  idxOne="11"  idxTwo="13"  coef="1.2822"/><qTerm  idx="1"  idxOne="11"  idxTwo="15"  coef="-1.8351"/><qTerm  idx="1"  idxOne="11"  idxTwo="19"  coef="-1.2626"/><qTerm  idx="1"  idxOne="12"  idxTwo="13"  coef="-.3127"/><qTerm  idx="1"  idxOne="12"  idxTwo="16"  coef="-1.8786"/><qTerm  idx="1"  idxOne="13"  idxTwo="13"  coef="1.2544"/><qTerm  idx="1"  idxOne="13"  idxTwo="14"  coef="1.4775"/><qTerm  idx="1"  idxOne="13"  idxTwo="15"  coef="-1.8189"/><qTerm  idx="1"  idxOne="13"  idxTwo="16"  coef="1.6273"/><qTerm  idx="1"  idxOne="13"  idxTwo="18"  coef=".6672"/><qTerm  idx="1"  idxOne="14"  idxTwo="15"  coef="1.8666"/><qTerm  idx="1"  idxOne="14"  idxTwo="16"  coef="-1.365"/><qTerm  idx="1"  idxOne="14"  idxTwo="17"  coef="-1.0215"/><qTerm  idx="1"  idxOne="15"  idxTwo="17"  coef="-1.6222"/><qTerm  idx="1"  idxOne="15"  idxTwo="18"  coef="-1.7798"/><qTerm  idx="1"  idxOne="15"  idxTwo="19"  coef="-1.7202"/><qTerm  idx="1"  idxOne="16"  idxTwo="16"  coef="1.124"/><qTerm  idx="1"  idxOne="16"  idxTwo="17"  coef="-9.86e-2"/><qTerm  idx="1"  idxOne="16"  idxTwo="18"  coef="-1.18e-2"/><qTerm  idx="1"  idxOne="16"  idxTwo="19"  coef="-1.2161"/><qTerm  idx="1"  idxOne="17"  idxTwo="18"  coef=".5614"/><qTerm  idx="2"  idxOne="0"  idxTwo="5"  coef="-1.7679"/><qTerm  idx="2"  idxOne="0"  idxTwo="7"  coef="-1.9019"/><qTerm  idx="2"  idxOne="0"  idxTwo="8"  coef=".9884"/><qTerm  idx="2"  idxOne="0"  idxTwo="15"  coef="1.4985"/><qTerm  idx="2"  idxOne="1"  idxTwo="3"  coef="1.5682"/><qTerm  idx="2"  idxOne="1"  idxTwo="4"  coef="1.4827"/><qTerm  idx="2"  idxOne="1"  idxTwo="8"  coef="-.7269"/><qTerm  idx="2"  idxOne="1"  idxTwo="9"  coef="-1.9361"/><qTerm  idx="2"  idxOne="1"  idxTwo="10"  coef="-1.2657"/><qTerm  idx="2"  idxOne="1"  idxTwo="11"  coef="5.72e-2"/><qTerm  idx="2"  idxOne="1"  idxTwo="12"  coef="-1.2023"/><qTerm  idx="2"  idxOne="1"  idxTwo="13"  coef=".3436"/><qTerm  idx="2"  idxOne="1"  idxTwo="16"  coef=".2148"/><qTerm  idx="2"  idxOne="1"  idxTwo="19"  coef=".8722"/><qTerm  idx="2"  idxOne="2"  idxTwo="4"  coef="7.35e-2"/><qTerm  idx="2"  idxOne="2"  idxTwo="5"  coef="-1.4532"/><qTerm  idx="2"  idxOne="2"  idxTwo="7"  coef=".9741"/><qTerm  idx="2"  idxOne="2"  idxTwo="8"  coef="1.7654"/><qTerm  idx="2"  idxOne="2"  idxTwo="9"  coef="-1.1497"/><qTerm  idx="2"  idxOne="2"  idxTwo="15"  coef="9.45e-2"/><qTerm  idx="2"  idxOne="2"  idxTwo="16"  coef="1.2203"/><qTerm  idx="2"  idxOne="2"  idxTwo="17"  coef=".7856"/><qTerm  idx="2"  idxOne="3"  idxTwo="4"  coef="1.6262"/><qTerm  idx="2"  idxOne="3"  idxTwo="5"  coef="1.5855"/><qTerm  idx="2"  idxOne="3"  idxTwo="12"  coef="-1.1814"/><qTerm  idx="2"  idxOne="3"  idxTwo="13"  coef="1.1459"/><qTerm  idx="2"  idxOne="3"  idxTwo="14"  coef="-1.606"/><qTerm  idx="2"  idxOne="3"  idxTwo="15"  coef="-.3401"/><qTerm  idx="2"  idxOne="3"  idxTwo="16"  coef=".9473"/><qTerm  idx="2"  idxOne="3"  idxTwo="18"  coef=".5195"/><qTerm  idx="2"  idxOne="4"  idxTwo="5"  coef="-.9069"/><qTerm  idx="2"  idxOne="4"  idxTwo="6"  coef=".8886"/><qTerm  idx="2"  idxOne="4"  idxTwo="8"  coef="-1.3674"/><qTerm  idx="2"  idxOne="4"  idxTwo="9"  coef="-1.3731"/><qTerm  idx="2"  idxOne="4"  idxTwo="10"  coef="-.3031"/><qTerm  idx="2"  idxOne="4"  idxTwo="11"  coef="1.6981"/><qTerm  idx="2"  idxOne="4"  idxTwo="12"  coef="-.8597"/><qTerm  idx="2"  idxOne="4"  idxTwo="13"  coef="-1.4594"/><qTerm  idx="2"  idxOne="4"  idxTwo="14"  coef="-.9513"/><qTerm  idx="2"  idxOne="4"  idxTwo="15"  coef="-3.2e-2"/><qTerm  idx="2"  idxOne="4"  idxTwo="16"  coef="-.3251"/><qTerm  idx="2"  idxOne="4"  idxTwo="18"  coef="-1.0247"/><qTerm  idx="2"  idxOne="4"  idxTwo="19"  coef="-.9284"/><qTerm  idx="2"  idxOne="5"  idxTwo="6"  coef="-5.41e-2"/><qTerm  idx="2"  idxOne="5"  idxTwo="8"  coef="-1.4789"/><qTerm  idx="2"  idxOne="5"  idxTwo="9"  coef=".5897"/><qTerm  idx="2"  idxOne="5"  idxTwo="12"  coef="-.9117"/><qTerm  idx="2"  idxOne="5"  idxTwo="13"  coef=".7432"/><qTerm  idx="2"  idxOne="5"  idxTwo="17"  coef="-.8773"/><qTerm  idx="2"  idxOne="6"  idxTwo="6"  coef="1.1504"/><qTerm  idx="2"  idxOne="6"  idxTwo="7"  coef="1.1981"/><qTerm  idx="2"  idxOne="6"  idxTwo="9"  coef="-.4751"/><qTerm  idx="2"  idxOne="6"  idxTwo="10"  coef=".9189"/><qTerm  idx="2"  idxOne="6"  idxTwo="12"  coef="-1.246"/><qTerm  idx="2"  idxOne="6"  idxTwo="13"  coef=".9633"/><qTerm  idx="2"  idxOne="6"  idxTwo="14"  coef="-.6059"/><qTerm  idx="2"  idxOne="6"  idxTwo="15"  coef="-1.5746"/><qTerm  idx="2"  idxOne="6"  idxTwo="16"  coef="1.4274"/><qTerm  idx="2"  idxOne="6"  idxTwo="17"  coef=".3443"/><qTerm  idx="2"  idxOne="7"  idxTwo="8"  coef="1.6816"/><qTerm  idx="2"  idxOne="7"  idxTwo="9"  coef=".2017"/><qTerm  idx="2"  idxOne="7"  idxTwo="11"  coef="-1.08"/><qTerm  idx="2"  idxOne="7"  idxTwo="12"  coef="1.2177"/><qTerm  idx="2"  idxOne="7"  idxTwo="13"  coef="-.1829"/><qTerm  idx="2"  idxOne="7"  idxTwo="15"  coef="-.2319"/><qTerm  idx="2"  idxOne="7"  idxTwo="18"  coef="-1.47"/><qTerm  idx="2"  idxOne="7"  idxTwo="19"  coef="-.8921"/><qTerm  idx="2"  idxOne="8"  idxTwo="11"  coef="-1.3119"/><qTerm  idx="2"  idxOne="8"  idxTwo="12"  coef=".6178"/><qTerm  idx="2"  idxOne="8"  idxTwo="13"  coef="1.6964"/><qTerm  idx="2"  idxOne="8"  idxTwo="14"  coef="-1.0376"/><qTerm  idx="2"  idxOne="8"  idxTwo="15"  coef="6.89e-2"/><qTerm  idx="2"  idxOne="8"  idxTwo="16"  coef="9.59e-2"/><qTerm  idx="2"  idxOne="9"  idxTwo="10"  coef="-.6625"/><qTerm  idx="2"  idxOne="9"  idxTwo="11"  coef="1.3072"/><qTerm  idx="2"  idxOne="9"  idxTwo="15"  coef="1.9756"/><qTerm  idx="2"  idxOne="9"  idxTwo="16"  coef="1.4288"/><qTerm  idx="2"  idxOne="9"  idxTwo="17"  coef=".9938"/><qTerm  idx="2"  idxOne="9"  idxTwo="19"  coef="-.3973"/><qTerm  idx="2"  idxOne="10"  idxTwo="10"  coef="1.0131"/><qTerm  idx="2"  idxOne="10"  idxTwo="11"  coef="-1.995"/><qTerm  idx="2"  idxOne="10"  idxTwo="14"  coef="1.6814"/><qTerm  idx="2"  idxOne="10"  idxTwo="17"  coef=".6954"/><qTerm  idx="2"  idxOne="10"  idxTwo="18"  coef=".4788"/><qTerm  idx="2"  idxOne="10"  idxTwo="19"  coef=".593"/><qTerm  idx="2"  idxOne="11"  idxTwo="11"  coef="-1.1837"/><qTerm  idx="2"  idxOne="11"  idxTwo="12"  coef="-1.5239"/><qTerm  idx="2"  idxOne="11"  idxTwo="13"  coef="-.7627"/><qTerm  idx="2"  idxOne="11"  idxTwo="15"  coef="-1.8284"/><qTerm  idx="2"  idxOne="12"  idxTwo="12"  coef=".8666"/><qTerm  idx="2"  idxOne="12"  idxTwo="14"  coef="1.8248"/><qTerm  idx="2"  idxOne="12"  idxTwo="15"  coef="-2.e-4"/><qTerm  idx="2"  idxOne="12"  idxTwo="17"  coef="1.2787"/><qTerm  idx="2"  idxOne="12"  idxTwo="19"  coef="1.8423"/><qTerm  idx="2"  idxOne="13"  idxTwo="13"  coef="-1.903"/><qTerm  idx="2"  idxOne="13"  idxTwo="14"  coef=".8064"/><qTerm  idx="2"  idxOne="13"  idxTwo="15"  coef="-1.3948"/><qTerm  idx="2"  idxOne="13"  idxTwo="16"  coef=".2311"/><qTerm  idx="2"  idxOne="13"  idxTwo="18"  coef=".3316"/><qTerm  idx="2"  idxOne="14"  idxTwo="14"  coef=".4508"/><qTerm  idx="2"  idxOne="14"  idxTwo="15"  coef=".2361"/><qTerm  idx="2"  idxOne="14"  idxTwo="17"  coef="-6.6e-2"/><qTerm  idx="2"  idxOne="17"  idxTwo="18"  coef="1.3099"/><qTerm  idx="2"  idxOne="17"  idxTwo="19"  coef="-.921"/><qTerm  idx="2"  idxOne="18"  idxTwo="19"  coef="-.7665"/><qTerm  idx="3"  idxOne="0"  idxTwo="0"  coef="-1.8661"/><qTerm  idx="3"  idxOne="0"  idxTwo="2"  coef="-1.1118"/><qTerm  idx="3"  idxOne="0"  idxTwo="3"  coef="-1.7458"/><qTerm  idx="3"  idxOne="0"  idxTwo="5"  coef="-1.773"/><qTerm  idx="3"  idxOne="0"  idxTwo="6"  coef="1.8589"/><qTerm  idx="3"  idxOne="0"  idxTwo="7"  coef=".326"/><qTerm  idx="3"  idxOne="0"  idxTwo="9"  coef=".2883"/><qTerm  idx="3"  idxOne="0"  idxTwo="12"  coef=".8261"/><qTerm  idx="3"  idxOne="0"  idxTwo="13"  coef="1.646"/><qTerm  idx="3"  idxOne="0"  idxTwo="16"  coef="-1.3795"/><qTerm  idx="3"  idxOne="1"  idxTwo="3"  coef="-1.2425"/><qTerm  idx="3"  idxOne="1"  idxTwo="4"  coef="-.7799"/><qTerm  idx="3"  idxOne="1"  idxTwo="5"  coef="1.642"/><qTerm  idx="3"  idxOne="1"  idxTwo="6"  coef="1.1687"/><qTerm  idx="3"  idxOne="1"  idxTwo="7"  coef="1.3034"/><qTerm  idx="3"  idxOne="1"  idxTwo="8"  coef="-.7613"/><qTerm  idx="3"  idxOne="1"  idxTwo="9"  coef="1.7422"/><qTerm  idx="3"  idxOne="1"  idxTwo="10"  coef="1.245"/><qTerm  idx="3"  idxOne="1"  idxTwo="13"  coef=".7211"/><qTerm  idx="3"  idxOne="1"  idxTwo="15"  coef="-1.768"/><qTerm  idx="3"  idxOne="1"  idxTwo="16"  coef="1.7807"/><qTerm  idx="3"  idxOne="1"  idxTwo="18"  coef="1.3427"/><qTerm  idx="3"  idxOne="2"  idxTwo="2"  coef="1.6244"/><qTerm  idx="3"  idxOne="2"  idxTwo="4"  coef="-.4956"/><qTerm  idx="3"  idxOne="2"  idxTwo="7"  coef="1.1555"/><qTerm  idx="3"  idxOne="2"  idxTwo="9"  coef="1.3097"/><qTerm  idx="3"  idxOne="2"  idxTwo="10"  coef="-1.3649"/><qTerm  idx="3"  idxOne="2"  idxTwo="11"  coef=".7693"/><qTerm  idx="3"  idxOne="2"  idxTwo="12"  coef=".7877"/><qTerm  idx="3"  idxOne="2"  idxTwo="13"  coef="-.9595"/><qTerm  idx="3"  idxOne="2"  idxTwo="14"  coef="-1.3348"/><qTerm  idx="3"  idxOne="2"  idxTwo="15"  coef="1.0024"/><qTerm  idx="3"  idxOne="2"  idxTwo="16"  coef=".3891"/><qTerm  idx="3"  idxOne="3"  idxTwo="4"  coef="-1.8387"/><qTerm  idx="3"  idxOne="3"  idxTwo="5"  coef="-1.1448"/><qTerm  idx="3"  idxOne="3"  idxTwo="6"  coef="-1.131"/><qTerm  idx="3"  idxOne="3"  idxTwo="8"  coef="-.5763"/><qTerm  idx="3"  idxOne="3"  idxTwo="9"  coef="-1.6928"/><qTerm  idx="3"  idxOne="3"  idxTwo="11"  coef="1.1813"/><qTerm  idx="3"  idxOne="3"  idxTwo="16"  coef="1.9279"/><qTerm  idx="3"  idxOne="4"  idxTwo="6"  coef=".8548"/><qTerm  idx="3"  idxOne="4"  idxTwo="7"  coef="-.9933"/><qTerm  idx="3"  idxOne="4"  idxTwo="8"  coef="-1.0823"/><qTerm  idx="3"  idxOne="4"  idxTwo="9"  coef="-1.3023"/><qTerm  idx="3"  idxOne="4"  idxTwo="10"  coef=".8892"/><qTerm  idx="3"  idxOne="4"  idxTwo="11"  coef="1.342"/><qTerm  idx="3"  idxOne="4"  idxTwo="12"  coef="-1.1452"/><qTerm  idx="3"  idxOne="4"  idxTwo="13"  coef="1.8997"/><qTerm  idx="3"  idxOne="4"  idxTwo="14"  coef="1.9817"/><qTerm  idx="3"  idxOne="5"  idxTwo="5"  coef="-.7977"/><qTerm  idx="3"  idxOne="5"  idxTwo="6"  coef="-1.8582"/><qTerm  idx="3"  idxOne="5"  idxTwo="10"  coef=".3747"/><qTerm  idx="3"  idxOne="5"  idxTwo="12"  coef="1.9292"/><qTerm  idx="3"  idxOne="5"  idxTwo="16"  coef="-.6652"/><qTerm  idx="3"  idxOne="5"  idxTwo="17"  coef="1.5935"/><qTerm  idx="3"  idxOne="6"  idxTwo="6"  coef="7.2e-3"/><qTerm  idx="3"  idxOne="6"  idxTwo="7"  coef="-1.4486"/><qTerm  idx="3"  idxOne="6"  idxTwo="9"  coef="-2.48e-2"/><qTerm  idx="3"  idxOne="6"  idxTwo="11"  coef="1.7691"/><qTerm  idx="3"  idxOne="6"  idxTwo="12"  coef="-1.6159"/><qTerm  idx="3"  idxOne="6"  idxTwo="14"  coef="1.6486"/><qTerm  idx="3"  idxOne="6"  idxTwo="15"  coef="-.266"/><qTerm  idx="3"  idxOne="6"  idxTwo="18"  coef="-1.3511"/><qTerm  idx="3"  idxOne="7"  idxTwo="8"  coef=".6247"/><qTerm  idx="3"  idxOne="7"  idxTwo="9"  coef="-.3693"/><qTerm  idx="3"  idxOne="7"  idxTwo="12"  coef="1.5755"/><qTerm  idx="3"  idxOne="7"  idxTwo="14"  coef=".9263"/><qTerm  idx="3"  idxOne="7"  idxTwo="15"  coef=".4923"/><qTerm  idx="3"  idxOne="7"  idxTwo="19"  coef="1.5518"/><qTerm  idx="3"  idxOne="8"  idxTwo="8"  coef=".8922"/><qTerm  idx="3"  idxOne="8"  idxTwo="9"  coef="-1.113"/><qTerm  idx="3"  idxOne="8"  idxTwo="10"  coef="1.779"/><qTerm  idx="3"  idxOne="8"  idxTwo="11"  coef="-1.3493"/><qTerm  idx="3"  idxOne="8"  idxTwo="12"  coef="-1.4923"/><qTerm  idx="3"  idxOne="8"  idxTwo="14"  coef="-.2805"/><qTerm  idx="3"  idxOne="8"  idxTwo="17"  coef="-.5136"/><qTerm  idx="3"  idxOne="8"  idxTwo="19"  coef="-1.5096"/><qTerm  idx="3"  idxOne="9"  idxTwo="9"  coef="-1.445"/><qTerm  idx="3"  idxOne="9"  idxTwo="10"  coef="-1.2296"/><qTerm  idx="3"  idxOne="9"  idxTwo="14"  coef="-.1375"/><qTerm  idx="3"  idxOne="9"  idxTwo="15"  coef=".5558"/><qTerm  idx="3"  idxOne="9"  idxTwo="16"  coef="1.3752"/><qTerm  idx="3"  idxOne="9"  idxTwo="17"  coef="1.2101"/><qTerm  idx="3"  idxOne="10"  idxTwo="10"  coef=".4243"/><qTerm  idx="3"  idxOne="10"  idxTwo="11"  coef=".7078"/><qTerm  idx="3"  idxOne="10"  idxTwo="12"  coef="-.5202"/><qTerm  idx="3"  idxOne="10"  idxTwo="13"  coef="-.7358"/><qTerm  idx="3"  idxOne="10"  idxTwo="14"  coef="-.4368"/><qTerm  idx="3"  idxOne="10"  idxTwo="15"  coef="1.8845"/><qTerm  idx="3"  idxOne="10"  idxTwo="17"  coef="-1.1297"/><qTerm  idx="3"  idxOne="11"  idxTwo="11"  coef="1.6397"/><qTerm  idx="3"  idxOne="11"  idxTwo="14"  coef="-1.1533"/><qTerm  idx="3"  idxOne="11"  idxTwo="16"  coef="-1.7307"/><qTerm  idx="3"  idxOne="11"  idxTwo="18"  coef="1.3749"/><qTerm  idx="3"  idxOne="12"  idxTwo="14"  coef="1.4927"/><qTerm  idx="3"  idxOne="12"  idxTwo="16"  coef="-1.3147"/><qTerm  idx="3"  idxOne="14"  idxTwo="18"  coef="-1.706"/><qTerm  idx="3"  idxOne="15"  idxTwo="15"  coef="-.3954"/><qTerm  idx="3"  idxOne="15"  idxTwo="16"  coef=".5468"/><qTerm  idx="3"  idxOne="15"  idxTwo="17"  coef="-.9344"/><qTerm  idx="3"  idxOne="15"  idxTwo="18"  coef="-.8216"/><qTerm  idx="3"  idxOne="15"  idxTwo="19"  coef=".9918"/><qTerm  idx="3"  idxOne="16"  idxTwo="17"  coef="-.1705"/><qTerm  idx="3"  idxOne="17"  idxTwo="18"  coef=".9759"/><qTerm  idx="3"  idxOne="18"  idxTwo="19"  coef="-1.8303"/></quadraticCoefficients></instanceData></osil>
